c status 9 1469387776936
c status 8 1469387776936
c status 7 1469387776937
s td 6 7 12
b 1 2 8 9 1 5 11
b 2 8 9 1 4 5 11 7
b 3 9 1 4 6 5 11 7
b 4 3 10 12 4 6 7
b 5 10 12 1 4 6 11 7
b 6 12 1 4 6 5 11 7
1 2
2 3
3 6
6 5
5 4
